p cnf 18 33
4 7 11 16 22 29 0
8 12 17 23 30 38 0
13 18 24 31 39 48 0
-4 -8 0
-7 -12 0
-11 -17 0
-16 -23 0
-22 -30 0
-29 -38 0
-4 -13 0
-7 -18 0
-11 -24 0
-16 -31 0
-22 -39 0
-29 -48 0
-8 -13 0
-12 -18 0
-17 -24 0
-23 -31 0
-30 -39 0
-38 -48 0
-4 -17 0
-7 -30 0
-4 -24 0
-7 -39 0
-8 -11 0
-12 -22 0
-8 -24 0
-12 -39 0
-13 -11 0
-18 -22 0
-13 -17 0
-18 -30 0
